This is Ipopt version 3.12.3, running with linear solver mumps.
NOTE: Other linear solvers might be more efficient (see Ipopt documentation).

Number of nonzeros in equality constraint Jacobian...:    29190
Number of nonzeros in inequality constraint Jacobian.:     9048
Number of nonzeros in Lagrangian Hessian.............:     5880

Total number of variables............................:     6528
                     variables with only lower bounds:        0
                variables with lower and upper bounds:        0
                     variables with only upper bounds:        0
Total number of equality constraints.................:     5880
Total number of inequality constraints...............:     7788
        inequality constraints with only lower bounds:      630
   inequality constraints with lower and upper bounds:     6528
        inequality constraints with only upper bounds:      630

iter    objective    inf_pr   inf_du lg(mu)  ||d||  lg(rg) alpha_du alpha_pr  ls
   0 2.5200630e-001 7.62e+002 1.67e+000  -1.0 0.00e+000    -  0.00e+000 0.00e+000   0
   1 1.0886446e+002 1.69e+002 3.20e+000  -1.0 6.85e+000    -  7.28e-001 9.94e-001h  1
   2 1.0723612e+002 3.22e+001 3.19e+000  -1.0 4.67e-001   0.0 9.89e-001 1.00e+000h  1
   3 1.0349131e+002 1.18e+001 2.21e+000  -1.0 4.63e-001  -0.5 1.00e+000 1.00e+000f  1
   4 9.4063017e+001 3.82e+001 1.41e-001  -1.0 1.27e+000  -1.0 1.00e+000 1.00e+000f  1
   5 7.5142505e+001 1.24e+002 1.50e+000  -1.0 3.36e+000  -1.4 1.00e+000 1.00e+000f  1
   6 5.1639586e+001 2.80e+001 4.59e-001  -1.0 5.93e+000  -1.9 1.00e+000 1.00e+000f  1
   7 1.4903220e+001 6.79e+002 6.01e+000  -1.7 1.31e+001    -  5.60e-001 1.00e+000f  1
   8 1.0471194e+001 1.82e+002 1.26e-001  -1.7 3.28e+000  -2.4 1.00e+000 1.00e+000h  1
   9 9.1521606e+000 4.41e+001 1.13e-001  -1.7 1.12e+000  -2.0 1.00e+000 1.00e+000h  1
iter    objective    inf_pr   inf_du lg(mu)  ||d||  lg(rg) alpha_du alpha_pr  ls
  10 8.7435006e+000 2.11e+000 1.18e-002  -1.7 4.04e-001  -1.5 1.00e+000 1.00e+000h  1
  11 6.2155019e+000 1.50e+000 2.91e-002  -2.5 1.54e+000  -2.0 1.00e+000 1.00e+000f  1
  12 5.3724378e+000 1.72e-001 1.82e-002  -2.5 6.98e-001  -1.6 1.00e+000 1.00e+000h  1
  13 5.0167743e+000 5.27e-002 2.54e-002  -3.8 3.66e-001  -1.2 1.00e+000 1.00e+000f  1
  14 4.1709489e+000 2.96e-001 2.32e-002  -3.8 1.00e+000  -1.6 1.00e+000 1.00e+000f  1
  15 3.9594054e+000 9.32e-002 2.20e-002  -3.8 3.52e-001  -1.2 1.00e+000 7.63e-001h  1
  16 3.8110455e+000 8.29e-002 2.06e-002  -3.8 1.03e+000  -1.7 1.00e+000 2.23e-001f  1
  17 3.7026816e+000 5.23e-002 2.10e-002  -3.8 4.32e-001  -1.3 1.00e+000 4.34e-001f  1
  18 3.5471919e+000 4.94e-002 2.08e-002  -3.8 1.16e+000  -1.7 1.00e+000 2.53e-001f  1
  19 3.4195924e+000 2.96e-002 2.20e-002  -3.8 4.93e-001  -1.3 1.00e+000 5.54e-001f  1
iter    objective    inf_pr   inf_du lg(mu)  ||d||  lg(rg) alpha_du alpha_pr  ls
  20 3.2373282e+000 6.17e-002 2.00e-002  -3.8 1.33e+000  -1.8 1.00e+000 3.29e-001f  1
  21 3.1596425e+000 4.42e-002 1.87e-002  -3.8 5.03e-001  -1.4 1.00e+000 3.80e-001f  1
  22 2.9921289e+000 1.57e-001 1.87e-002  -3.8 1.30e+000  -1.8 1.00e+000 3.30e-001f  1
  23 2.8096853e+000 1.08e-001 2.06e-002  -3.8 5.36e-001  -1.4 1.00e+000 1.00e+000f  1
  24 2.7451826e+000 1.31e-001 2.23e-002  -3.8 1.16e+000  -1.9 1.00e+000 1.50e-001h  1
  25 2.5797759e+000 1.61e-001 1.72e-002  -3.8 5.01e-001  -1.5 1.00e+000 1.00e+000f  1
  26 2.5057162e+000 1.75e-001 1.59e-002  -3.8 1.10e+000  -1.9 1.00e+000 1.94e-001h  1
  27 2.2766164e+000 2.04e-001 2.94e-002  -3.8 2.14e+000  -2.4 1.00e+000 2.89e-001f  1
  28 2.1034575e+000 4.04e+001 4.98e-001  -3.8 1.61e+001  -2.9 2.70e-001 1.41e-001f  1
  29 1.8780138e+000 2.56e+001 3.16e-001  -3.8 1.96e+000  -2.5 1.00e+000 3.68e-001h  1
iter    objective    inf_pr   inf_du lg(mu)  ||d||  lg(rg) alpha_du alpha_pr  ls
  30 1.6808584e+000 1.98e+001 2.48e-001  -3.8 5.05e+000  -2.9 1.00e+000 2.23e-001h  1
  31 1.5181804e+000 1.11e+001 1.44e-001  -3.8 1.41e+000  -2.5 1.00e+000 4.43e-001h  1
  32 1.3745550e+000 7.63e+000 1.02e-001  -3.8 2.62e+000  -3.0 1.00e+000 2.98e-001h  1
  33 1.2801705e+000 3.80e+000 5.29e-002  -3.8 1.16e+000  -2.6 1.00e+000 4.92e-001h  1
  34 1.1780850e+000 2.02e+000 3.41e-002  -3.8 2.06e+000  -3.1 1.00e+000 3.92e-001h  1
  35 1.0342952e+000 6.24e+000 2.04e-002  -3.8 3.69e+000  -3.5 1.00e+000 5.65e-001h  1
  36 8.9589264e-001 9.95e+000 1.32e-002  -3.8 4.39e+000  -4.0 9.34e-001 1.00e+000h  1
  37 8.2311758e-001 1.10e+002 2.49e-003  -3.8 4.15e+000  -4.5 9.15e-001 1.00e+000h  1
  38 8.0034691e-001 9.99e+001 2.31e-003  -3.8 8.34e+001    -  1.84e-001 8.76e-002h  1
  39 6.2424991e-001 3.80e+001 2.88e-003  -3.8 8.06e+000    -  1.00e+000 1.00e+000h  1
iter    objective    inf_pr   inf_du lg(mu)  ||d||  lg(rg) alpha_du alpha_pr  ls
  40 6.4530504e-001 1.03e+001 4.77e-004  -3.8 2.96e+000    -  1.00e+000 1.00e+000h  1
  41 6.4463016e-001 1.46e+000 3.18e-004  -3.8 5.40e-001    -  1.00e+000 1.00e+000h  1
  42 6.4460538e-001 3.62e-002 9.10e-006  -3.8 6.90e-002    -  1.00e+000 1.00e+000h  1
  43 5.0474614e-001 2.81e+001 3.58e-003  -5.7 1.07e+001    -  8.00e-001 5.79e-001f  1
  44 3.9474115e-001 1.19e+001 1.12e-003  -5.7 9.84e+000    -  9.25e-001 7.39e-001h  1
  45 3.6760042e-001 1.09e+001 3.04e-003  -5.7 6.46e+000    -  1.00e+000 5.16e-001h  1
  46 3.6411382e-001 4.36e+000 1.94e-003  -5.7 6.29e-001  -4.1 7.92e-001 5.83e-001h  1
  47 3.5799056e-001 3.21e+000 1.23e-003  -5.7 1.38e+000  -4.5 1.00e+000 6.20e-001h  1
  48 3.5129640e-001 2.38e+000 1.02e-003  -5.7 7.37e+000    -  1.00e+000 2.49e-001h  1
  49 3.4659269e-001 3.00e+000 8.76e-004  -5.7 4.72e+000    -  1.00e+000 4.79e-001h  1
iter    objective    inf_pr   inf_du lg(mu)  ||d||  lg(rg) alpha_du alpha_pr  ls
  50 3.4461132e-001 2.49e+000 3.43e-004  -5.7 2.08e+000    -  1.00e+000 7.08e-001h  1
  51 3.4409515e-001 1.91e-001 3.18e-005  -5.7 4.98e-001    -  1.00e+000 1.00e+000h  1
  52 3.4409901e-001 1.14e-003 1.50e-006  -5.7 3.87e-002    -  1.00e+000 1.00e+000h  1
  53 3.4409871e-001 7.51e-006 2.09e-008  -5.7 3.23e-003    -  1.00e+000 1.00e+000h  1
  54 3.4262227e-001 3.76e-001 1.89e-003  -7.0 1.65e+000    -  9.52e-001 4.89e-001f  1
  55 3.4188529e-001 3.45e-001 2.27e-003  -7.0 1.47e+000    -  1.00e+000 5.52e-001h  1
  56 3.4156654e-001 1.66e-001 1.32e-003  -7.0 9.75e-001    -  1.00e+000 6.43e-001h  1
  57 3.4144065e-001 3.24e-002 3.22e-004  -7.0 4.83e-001    -  1.00e+000 8.34e-001h  1
  58 3.4141918e-001 9.83e-004 1.05e-007  -7.0 1.18e-001    -  1.00e+000 1.00e+000f  1
  59 3.4141918e-001 2.60e-007 1.26e-010  -7.0 2.79e-003    -  1.00e+000 1.00e+000h  1

Number of Iterations....: 59

                                   (scaled)                 (unscaled)
Objective...............:  3.4141918013874872e-001   3.4141918013874872e-001
Dual infeasibility......:  1.2590936127911123e-010   1.2590936127911123e-010
Constraint violation....:  5.3700783070133662e-009   2.6048621748486767e-007
Complementarity.........:  9.1231503689616218e-008   9.1231503689616218e-008
Overall NLP error.......:  9.1231503689616218e-008   2.6048621748486767e-007


Number of objective function evaluations             = 60
Number of objective gradient evaluations             = 60
Number of equality constraint evaluations            = 60
Number of inequality constraint evaluations          = 60
Number of equality constraint Jacobian evaluations   = 60
Number of inequality constraint Jacobian evaluations = 60
Number of Lagrangian Hessian evaluations             = 59
Total CPU secs in IPOPT (w/o function evaluations)   =      2.784
Total CPU secs in NLP function evaluations           =      0.651

EXIT: Optimal Solution Found.
               t_proc [s]   t_wall [s]    n_eval
       nlp_f        0.014       0.0125        60
       nlp_g        0.054       0.0538        60
  nlp_grad_f         0.02       0.0225        61
  nlp_hess_l        0.271        0.272        59
   nlp_jac_g        0.301        0.302        61
      solver         3.44         3.44         1
